nNurses = 57;
nHours = 29;
minHours = 8;
maxHours = 12;
maxConsec = 9;
maxPresence = 20;
demand = [17, 18, 18, 23, 19, 21, 23, 20, 19, 23, 21, 17, 14, 15, 12, 13, 14, 19, 15, 20, 23, 18, 13, 11, 6, 7, 7, 12, 14];
